<instance format="XCSP3" type="CSP">
  <constraints>
    <count id="c1">
      <list> v1 v2 v3 v4 </list>
      <values> v </values>
      <condition> (ne,k1) </condition>
    </count>
    <count id="c2">   // among
      <list> w1 w2 w3 w4 </list>
      <values> 1 5 8 </values>
      <condition> (eq,k2) </condition>
    </count>
    <count id="c3" >  // atLeast
      <list> x1 x2 x3 x4 x5 </list>
      <values> 1 </values>
      <condition> (ge,k3) </condition>
    </count>
    <count id="c4" > // atMost
      <list> y1 y2 y3 y4 </list>
      <values> 0 </values>
      <condition> (le,2) </condition>
    </count>
    <count id="c5"> // exactly
      <list> z1 z3 z3 </list>
      <values> z </values>
      <condition> (eq,k5) </condition>
    </count>
  </constraints>
</instance>
